language ESSENCE' 1.0

letting C_FunctionND be
        [[0, 0, 0, 0, 0, 0, 0, 0, 0, 0, 0, 0, 0; int(0..12)], [1, 0, 0, 0, 0, 0, 0, 0, 0, 0, 0, 0, 0; int(0..12)],
         [1, 0, 0, 0, 0, 0, 0, 0, 0, 0, 0, 0, 0; int(0..12)], [1, 0, 0, 0, 0, 0, 0, 0, 0, 0, 0, 0, 0; int(0..12)],
         [1, 0, 0, 0, 0, 0, 0, 0, 0, 0, 0, 0, 0; int(0..12)], [1, 0, 0, 0, 0, 0, 0, 0, 0, 0, 0, 0, 0; int(0..12)],
         [0, 1, 1, 1, 0, 0, 0, 0, 0, 0, 0, 0, 0; int(0..12)], [0, 1, 0, 0, 1, 0, 0, 0, 0, 0, 0, 0, 0; int(0..12)],
         [0, 1, 0, 0, 0, 1, 0, 0, 0, 0, 0, 0, 0; int(0..12)], [0, 0, 1, 0, 1, 1, 0, 0, 0, 0, 0, 0, 0; int(0..12)],
         [0, 0, 0, 1, 1, 0, 0, 0, 0, 0, 0, 0, 0; int(0..12)], [0, 0, 0, 1, 0, 1, 0, 0, 0, 0, 0, 0, 0; int(0..12)],
         [0, 0, 0, 0, 0, 0, 1, 1, 1, 1, 1, 1, 0; int(0..12)];
             int(0..12)]
$ Visualisation for C_FunctionND
$ 0 0 0 0 0 0 0 0 0 0 0 0 0
$ 1 0 0 0 0 0 0 0 0 0 0 0 0
$ 1 0 0 0 0 0 0 0 0 0 0 0 0
$ 1 0 0 0 0 0 0 0 0 0 0 0 0
$ 1 0 0 0 0 0 0 0 0 0 0 0 0
$ 1 0 0 0 0 0 0 0 0 0 0 0 0
$ 0 1 1 1 0 0 0 0 0 0 0 0 0
$ 0 1 0 0 1 0 0 0 0 0 0 0 0
$ 0 1 0 0 0 1 0 0 0 0 0 0 0
$ 0 0 1 0 1 1 0 0 0 0 0 0 0
$ 0 0 0 1 1 0 0 0 0 0 0 0 0
$ 0 0 0 1 0 1 0 0 0 0 0 0 0
$ 0 0 0 0 0 0 1 1 1 1 1 1 0

letting J_FunctionND be
        [[0, 1, 2, 3, 4, 5, 6, 7, 8, 9, 10, 11, 12; int(0..12)],
         [1, 1, 6, 6, 7, 8, 6, 7, 8, 12, 12, 12, 12; int(0..12)],
         [2, 6, 2, 6, 9, 9, 6, 12, 12, 9, 12, 12, 12; int(0..12)],
         [3, 6, 6, 3, 10, 11, 6, 12, 12, 12, 10, 11, 12; int(0..12)],
         [4, 7, 9, 10, 4, 9, 12, 7, 12, 9, 10, 12, 12; int(0..12)],
         [5, 8, 9, 11, 9, 5, 12, 12, 8, 9, 12, 11, 12; int(0..12)],
         [6, 6, 6, 6, 12, 12, 6, 12, 12, 12, 12, 12, 12; int(0..12)],
         [7, 7, 12, 12, 7, 12, 12, 7, 12, 12, 12, 12, 12; int(0..12)],
         [8, 8, 12, 12, 12, 8, 12, 12, 8, 12, 12, 12, 12; int(0..12)],
         [9, 12, 9, 12, 9, 9, 12, 12, 12, 9, 12, 12, 12; int(0..12)],
         [10, 12, 12, 10, 10, 12, 12, 12, 12, 12, 10, 12, 12; int(0..12)],
         [11, 12, 12, 11, 12, 11, 12, 12, 12, 12, 12, 11, 12; int(0..12)],
         [12, 12, 12, 12, 12, 12, 12, 12, 12, 12, 12, 12, 12; int(0..12)];
             int(0..12)]
$ Visualisation for J_FunctionND
$  0  1  2  3  4  5  6  7  8  9 10 11 12
$  1  1  6  6  7  8  6  7  8 12 12 12 12
$  2  6  2  6  9  9  6 12 12  9 12 12 12
$  3  6  6  3 10 11  6 12 12 12 10 11 12
$  4  7  9 10  4  9 12  7 12  9 10 12 12
$  5  8  9 11  9  5 12 12  8  9 12 11 12
$  6  6  6  6 12 12  6 12 12 12 12 12 12
$  7  7 12 12  7 12 12  7 12 12 12 12 12
$  8  8 12 12 12  8 12 12  8 12 12 12 12
$  9 12  9 12  9  9 12 12 12  9 12 12 12
$ 10 12 12 10 10 12 12 12 12 12 10 12 12
$ 11 12 12 11 12 11 12 12 12 12 12 11 12
$ 12 12 12 12 12 12 12 12 12 12 12 12 12

letting M_FunctionND be
        [[0, 0, 0, 0, 0, 0, 0, 0, 0, 0, 0, 0, 0; int(0..12)], [0, 1, 0, 0, 0, 0, 1, 1, 1, 0, 0, 0, 1; int(0..12)],
         [0, 0, 2, 0, 0, 0, 2, 0, 0, 2, 0, 0, 2; int(0..12)], [0, 0, 0, 3, 0, 0, 3, 0, 0, 0, 3, 3, 3; int(0..12)],
         [0, 0, 0, 0, 4, 0, 0, 4, 0, 4, 4, 0, 4; int(0..12)], [0, 0, 0, 0, 0, 5, 0, 0, 5, 5, 0, 5, 5; int(0..12)],
         [0, 1, 2, 3, 0, 0, 6, 1, 1, 2, 3, 3, 6; int(0..12)], [0, 1, 0, 0, 4, 0, 1, 7, 1, 4, 4, 0, 7; int(0..12)],
         [0, 1, 0, 0, 0, 5, 1, 1, 8, 5, 0, 5, 8; int(0..12)], [0, 0, 2, 0, 4, 5, 2, 4, 5, 9, 4, 5, 9; int(0..12)],
         [0, 0, 0, 3, 4, 0, 3, 4, 0, 4, 10, 3, 10; int(0..12)], [0, 0, 0, 3, 0, 5, 3, 0, 5, 5, 3, 11, 11; int(0..12)],
         [0, 1, 2, 3, 4, 5, 6, 7, 8, 9, 10, 11, 12; int(0..12)];
             int(0..12)]
$ Visualisation for M_FunctionND
$  0  0  0  0  0  0  0  0  0  0  0  0  0
$  0  1  0  0  0  0  1  1  1  0  0  0  1
$  0  0  2  0  0  0  2  0  0  2  0  0  2
$  0  0  0  3  0  0  3  0  0  0  3  3  3
$  0  0  0  0  4  0  0  4  0  4  4  0  4
$  0  0  0  0  0  5  0  0  5  5  0  5  5
$  0  1  2  3  0  0  6  1  1  2  3  3  6
$  0  1  0  0  4  0  1  7  1  4  4  0  7
$  0  1  0  0  0  5  1  1  8  5  0  5  8
$  0  0  2  0  4  5  2  4  5  9  4  5  9
$  0  0  0  3  4  0  3  4  0  4 10  3 10
$  0  0  0  3  0  5  3  0  5  5  3 11 11
$  0  1  2  3  4  5  6  7  8  9 10 11 12

letting R_Function1D be [0, 1, 1, 1, 1, 1, 2, 2, 2, 2, 2, 2, 3; int(0..12)]
